NAME : X-n275-50-k14
COMMENT : "Generated by Queiroga, Frota, Sadykov, Subramanian, Uchoa and Vidal (2019)" 
TYPE : CVRP
DIMENSION : 275
EDGE_WEIGHT_TYPE : EUC_2D
CAPACITY : 10
NODE_COORD_SECTION
1 -1 409 418
2 0 378 220
3 0 469 585
4 0 91 695
5 0 351 130
6 0 424 101
7 0 70 693
8 0 324 133
9 0 367 215
10 0 218 906
11 0 90 688
12 0 417 223
13 0 42 693
14 0 134 482
15 0 594 488
16 0 431 269
17 0 383 606
18 0 100 597
19 0 85 697
20 0 378 218
21 0 196 640
22 0 213 635
23 0 520 537
24 0 509 542
25 0 388 549
26 0 476 583
27 0 409 565
28 0 155 828
29 0 60 690
30 0 415 269
31 0 127 578
32 0 363 304
33 0 392 329
34 0 424 660
35 0 505 683
36 0 372 120
37 0 438 620
38 0 578 421
39 0 116 716
40 0 107 719
41 0 117 677
42 0 324 275
43 0 246 789
44 0 363 223
45 0 139 682
46 0 376 197
47 0 397 52
48 0 107 727
49 0 64 671
50 0 369 275
51 0 96 659
52 0 129 627
53 0 45 581
54 0 403 585
55 0 70 731
56 0 528 736
57 0 379 320
58 0 424 608
59 0 436 607
60 0 54 687
61 0 342 544
62 0 595 525
63 0 508 336
64 0 338 90
65 0 510 165
66 0 269 820
67 0 18 776
68 0 316 293
69 0 575 485
70 0 335 179
71 0 1 727
72 0 571 436
73 0 15 696
74 0 227 760
75 0 324 538
76 0 523 519
77 0 620 500
78 0 217 427
79 0 53 809
80 0 206 622
81 0 602 506
82 0 48 771
83 0 486 347
84 0 100 740
85 0 161 660
86 0 528 559
87 0 386 460
88 0 330 295
89 0 225 345
90 0 301 729
91 0 334 243
92 0 99 819
93 0 219 610
94 0 70 560
95 0 334 161
96 0 589 420
97 0 428 605
98 0 478 509
99 0 76 753
100 0 464 167
101 0 18 327
102 0 451 63
103 0 406 145
104 0 431 608
105 0 213 707
106 0 95 635
107 0 550 573
108 0 172 811
109 0 85 789
110 0 119 788
111 0 348 210
112 0 571 227
113 0 364 347
114 0 591 428
115 0 436 611
116 0 471 928
117 0 416 528
118 0 504 383
119 0 217 255
120 0 255 720
121 0 100 830
122 0 82 693
123 0 290 209
124 0 522 281
125 0 331 406
126 0 426 244
127 0 529 618
128 0 638 99
129 0 153 648
130 0 124 719
131 0 419 70
132 0 12 653
133 0 433 169
134 0 370 686
135 0 811 620
136 0 160 691
137 0 204 673
138 0 57 666
139 1 326 401
140 1 627 541
141 1 332 114
142 1 497 575
143 1 469 605
144 1 49 648
145 1 547 588
146 1 305 746
147 1 192 805
148 1 370 621
149 1 759 660
150 1 89 757
151 1 287 223
152 1 380 129
153 1 286 386
154 1 23 745
155 1 21 738
156 1 441 683
157 1 402 577
158 1 255 442
159 1 260 288
160 1 322 693
161 1 502 313
162 1 431 473
163 1 106 701
164 1 390 398
165 1 443 175
166 1 335 272
167 1 156 178
168 1 390 225
169 1 194 867
170 1 170 621
171 1 311 241
172 1 358 323
173 1 427 911
174 1 555 239
175 1 55 781
176 1 374 566
177 1 388 263
178 1 352 701
179 1 82 671
180 1 451 565
181 1 91 833
182 1 292 609
183 1 466 592
184 1 561 488
185 1 131 779
186 1 186 699
187 1 567 525
188 1 635 481
189 1 404 512
190 1 459 694
191 1 456 399
192 1 91 725
193 1 483 196
194 1 317 460
195 1 128 824
196 1 481 179
197 1 517 442
198 1 97 705
199 1 263 806
200 1 381 215
201 1 386 164
202 1 497 137
203 1 311 737
204 1 100 611
205 1 414 525
206 1 79 643
207 1 284 318
208 1 155 706
209 1 426 661
210 1 297 164
211 1 454 197
212 1 499 697
213 1 480 310
214 1 145 692
215 1 390 236
216 1 350 333
217 1 605 460
218 1 709 391
219 1 426 192
220 1 98 767
221 1 141 672
222 1 399 684
223 1 107 853
224 1 56 774
225 1 309 266
226 1 376 510
227 1 205 771
228 1 105 676
229 1 682 508
230 1 236 173
231 1 256 311
232 1 59 713
233 1 307 278
234 1 735 524
235 1 566 711
236 1 320 437
237 1 71 844
238 1 18 737
239 1 430 559
240 1 85 479
241 1 376 276
242 1 171 400
243 1 430 237
244 1 201 588
245 1 478 593
246 1 291 132
247 1 464 582
248 1 669 494
249 1 562 733
250 1 298 173
251 1 438 567
252 1 402 206
253 1 150 291
254 1 364 561
255 1 415 580
256 1 87 693
257 1 502 751
258 1 132 831
259 1 574 481
260 1 19 707
261 1 486 590
262 1 399 205
263 1 165 712
264 1 63 746
265 1 50 740
266 1 514 246
267 1 400 617
268 1 421 162
269 1 497 582
270 1 260 817
271 1 40 768
272 1 58 721
273 1 332 614
274 1 190 878
275 1 346 218
DEMAND_SECTION
1 0
2 1
3 1
4 1
5 1
6 1
7 1
8 1
9 1
10 1
11 1
12 1
13 1
14 1
15 1
16 1
17 1
18 1
19 1
20 1
21 1
22 1
23 1
24 1
25 1
26 1
27 1
28 1
29 1
30 1
31 1
32 1
33 1
34 1
35 1
36 1
37 1
38 1
39 1
40 1
41 1
42 1
43 1
44 1
45 1
46 1
47 1
48 1
49 1
50 1
51 1
52 1
53 1
54 1
55 1
56 1
57 1
58 1
59 1
60 1
61 1
62 1
63 1
64 1
65 1
66 1
67 1
68 1
69 1
70 1
71 1
72 1
73 1
74 1
75 1
76 1
77 1
78 1
79 1
80 1
81 1
82 1
83 1
84 1
85 1
86 1
87 1
88 1
89 1
90 1
91 1
92 1
93 1
94 1
95 1
96 1
97 1
98 1
99 1
100 1
101 1
102 1
103 1
104 1
105 1
106 1
107 1
108 1
109 1
110 1
111 1
112 1
113 1
114 1
115 1
116 1
117 1
118 1
119 1
120 1
121 1
122 1
123 1
124 1
125 1
126 1
127 1
128 1
129 1
130 1
131 1
132 1
133 1
134 1
135 1
136 1
137 1
138 1
139 1
140 1
141 1
142 1
143 1
144 1
145 1
146 1
147 1
148 1
149 1
150 1
151 1
152 1
153 1
154 1
155 1
156 1
157 1
158 1
159 1
160 1
161 1
162 1
163 1
164 1
165 1
166 1
167 1
168 1
169 1
170 1
171 1
172 1
173 1
174 1
175 1
176 1
177 1
178 1
179 1
180 1
181 1
182 1
183 1
184 1
185 1
186 1
187 1
188 1
189 1
190 1
191 1
192 1
193 1
194 1
195 1
196 1
197 1
198 1
199 1
200 1
201 1
202 1
203 1
204 1
205 1
206 1
207 1
208 1
209 1
210 1
211 1
212 1
213 1
214 1
215 1
216 1
217 1
218 1
219 1
220 1
221 1
222 1
223 1
224 1
225 1
226 1
227 1
228 1
229 1
230 1
231 1
232 1
233 1
234 1
235 1
236 1
237 1
238 1
239 1
240 1
241 1
242 1
243 1
244 1
245 1
246 1
247 1
248 1
249 1
250 1
251 1
252 1
253 1
254 1
255 1
256 1
257 1
258 1
259 1
260 1
261 1
262 1
263 1
264 1
265 1
266 1
267 1
268 1
269 1
270 1
271 1
272 1
273 1
274 1
275 1
DEPOT_SECTION
1
-1
EOF
